p cnf 7230 16
-2362 -2590 -3030 0
-1760 -2612 -3026 0
-1758 -2224 -3024 0
2362 -3031 0
1760 -3027 0
1758 -3025 0
3030 3031 0
3028 3029 0
2358 -3029 0
-2358 -3028 0
3026 3027 0
3024 3025 0
2590 -3031 0
2612 -3027 0
2224 -3025 0
3022 3023 0
